NAME : mtspf.pid7008.gtsp.32112255.tour
COMMENT : Length = 32112255
COMMENT : Found by LKH [Keld Helsgaun] Mon Jan 13 19:28:01 2025
TYPE : TOUR
DIMENSION : 15
TOUR_SECTION
1
5
6
7
4
14
15
12
13
11
8
9
10
2
3
-1
EOF
